n = 21;
lu = [|-55, 345
      |-426, 422
      |-222, -129
      |43, 210
      |-398, 437
      |-180, 334
      |-406, -128
      |-7, 137
      |-343, 161
      |-314, 438
      |148, 262
      |305, 411
      |-240, 83
      |198, 372
      |-118, 403
      |-256, 120
      |-74, 85
      |39, 96
      |-335, 412
      |210, 253
      |-341, 173|];
